10
0 15 32 22 40 28 23 30 38 33
15 0 29 35 20 33 18 28 31 37
32 29 0 27 33 34 25 22 19 29
22 35 27 0 30 37 25 31 28 41
40 20 33 30 0 22 19 24 30 25
28 33 34 37 22 0 40 29 33 42
23 18 25 25 19 40 0 33 37 30
30 28 22 31 24 29 33 0 26 34
38 31 19 28 30 33 37 26 0 32
33 37 29 41 25 42 30 34 32 0
0       1440
440     1220
600     850
60      600
380     1050
500     840
450     900
530     700
150     750
30      850
